
  12    4
  10   10   10   10

   0   0   0   0   0   2 2 4 
   2  10  10  10  10   2 5 3 
   2  10  10  10  10   3 10 7 6 
   9  10  10  10  10   2 10 5 
  10  10  10  10  10   2 9 8 
   1  10  10  10  10   2 9 8 
   8  10  10  10  10   2 9 8 
   8  10  10  10  10   1 11 
  10  10  10  10  10   1 11 
   2  10  10  10  10   1 11 
   6  10  10  10  10   1 12
   0   0   0   0   0   0 
